certificates/rado_a7_c9_N18.cnf
c Rad2 upper bound instance: x1 + 7*x2 - x3 = 9, interval [1,18]
p cnf 18 70
1 2 6 0
-1 -2 -6 0
1 3 13 0
-1 -3 -13 0
2 7 0
-2 -7 0
2 3 14 0
-2 -3 -14 0
1 3 0
-1 -3 0
2 3 8 0
-2 -3 -8 0
3 15 0
-3 -15 0
1 2 4 0
-1 -2 -4 0
2 4 9 0
-2 -4 -9 0
3 4 16 0
-3 -4 -16 0
1 3 5 0
-1 -3 -5 0
2 5 10 0
-2 -5 -10 0
3 5 17 0
-3 -5 -17 0
1 4 6 0
-1 -4 -6 0
2 6 11 0
-2 -6 -11 0
3 6 18 0
-3 -6 -18 0
1 5 7 0
-1 -5 -7 0
2 7 12 0
-2 -7 -12 0
1 6 8 0
-1 -6 -8 0
2 8 13 0
-2 -8 -13 0
1 7 9 0
-1 -7 -9 0
2 9 14 0
-2 -9 -14 0
1 8 10 0
-1 -8 -10 0
2 10 15 0
-2 -10 -15 0
1 9 11 0
-1 -9 -11 0
2 11 16 0
-2 -11 -16 0
1 10 12 0
-1 -10 -12 0
2 12 17 0
-2 -12 -17 0
1 11 13 0
-1 -11 -13 0
2 13 18 0
-2 -13 -18 0
1 12 14 0
-1 -12 -14 0
1 13 15 0
-1 -13 -15 0
1 14 16 0
-1 -14 -16 0
1 15 17 0
-1 -15 -17 0
1 16 18 0
-1 -16 -18 0
