certificates/rado_a7_c9_N18.drat
-16 -18 0
d -16 -1 -18 0
4 6 16 0
-3 6 16 0
3 -17 0
-3 -18 0
-18 0
16 0
3 -6 0
-3 0
1 0
15 0
6 0
-17 0
0
